instances/knapsack/discrete_knapsack_uncertainty/knapsack_70_3.lp
\ Model knapsack_70_3
\ LP format - for model browsing. Use MPS format to capture full model detail.
\ Signature: 0x9699bb600e1f4c54
Minimize
  - 16 x[0] - 81 x[1] - 86 x[2] - 46 x[3] - 48 x[4] - 55 x[5] - 16 x[6]
   - 30 x[7] - 25 x[8] - 89 x[9] - 53 x[10] - 13 x[11] - 69 x[12]
   - 68 x[13] - 49 x[14] - 22 x[15] - 60 x[16] - 96 x[17] - 89 x[18]
   - 76 x[19] - 100 x[20] - 17 x[21] - 50 x[22] - 42 x[23] - 67 x[24]
   - 37 x[25] - 70 x[26] - 46 x[27] - 40 x[28] - 43 x[29] - 71 x[30]
   - 46 x[31] - 50 x[32] - 77 x[33] - 2 x[34] - 7 x[35] - 27 x[36]
   - 49 x[37] - 25 x[38] - 98 x[39] - 42 x[40] - 64 x[41] - 100 x[42]
   - 25 x[43] - 77 x[44] - 85 x[45] - 15 x[46] - 19 x[47] - 47 x[48]
   - 96 x[49] - 41 x[50] - 37 x[51] - 5 x[52] - 47 x[53] - 62 x[54]
   - 88 x[55] - 5 x[56] - 58 x[57] - 98 x[58] - 33 x[59] - 42 x[60]
   - 16 x[61] - 32 x[62] - 20 x[63] - 21 x[64] - 67 x[65] - 15 x[66]
   - 28 x[67] - 91 x[68] - 16 x[69]
Subject To
 primal_upper: 6 x[0] + 10 x[1] + 56 x[2] + 25 x[3] + 58 x[4] + 48 x[5]
   + 11 x[6] + 62 x[7] + 35 x[8] + 72 x[9] + 54 x[10] + 89 x[11] + 34 x[12]
   + 54 x[13] + 79 x[14] + 3 x[15] + 35 x[16] + 70 x[17] + 23 x[18]
   + 52 x[19] + 3 x[20] + 70 x[21] + 42 x[22] + 73 x[23] + 99 x[24]
   + 78 x[25] + 40 x[26] + 82 x[27] + 24 x[28] + 69 x[29] + 20 x[30]
   + 86 x[31] + 10 x[32] + 35 x[33] + 34 x[34] + 59 x[35] + 78 x[36]
   + 75 x[37] + 46 x[38] + 61 x[39] + x[40] + 48 x[41] + 64 x[42]
   + 24 x[43] + 29 x[44] + 61 x[45] + 84 x[46] + 44 x[47] + 85 x[48]
   + 18 x[49] + 29 x[50] + 30 x[51] + 31 x[52] + 58 x[53] + 31 x[54]
   + 46 x[55] + 47 x[56] + 21 x[57] + 38 x[58] + 96 x[59] + 99 x[60]
   + 85 x[61] + 42 x[62] + 13 x[63] + 86 x[64] + 74 x[65] + 23 x[66]
   + x[67] + 22 x[68] + 84 x[69] + 0.6 r[0] + r[1] + 5.6 r[2] + 2.5 r[3]
   + 5.8 r[4] + 4.8 r[5] + 1.1 r[6] + 6.2 r[7] + 3.5 r[8] + 7.2 r[9]
   + 5.4 r[10] + 8.9 r[11] + 3.4 r[12] + 5.4 r[13] + 7.9 r[14] + 0.3 r[15]
   + 3.5 r[16] + 7 r[17] + 2.3 r[18] + 5.2 r[19] + 0.3 r[20] + 7 r[21]
   + 4.2 r[22] + 7.3 r[23] + 9.9 r[24] + 7.8 r[25] + 4 r[26] + 8.2 r[27]
   + 2.4 r[28] + 6.9 r[29] + 2 r[30] + 8.6 r[31] + r[32] + 3.5 r[33]
   + 3.4 r[34] + 5.9 r[35] + 7.8 r[36] + 7.5 r[37] + 4.6 r[38] + 6.1 r[39]
   + 0.1 r[40] + 4.8 r[41] + 6.4 r[42] + 2.4 r[43] + 2.9 r[44] + 6.1 r[45]
   + 8.4 r[46] + 4.4 r[47] + 8.5 r[48] + 1.8 r[49] + 2.9 r[50] + 3 r[51]
   + 3.1 r[52] + 5.8 r[53] + 3.1 r[54] + 4.6 r[55] + 4.7 r[56] + 2.1 r[57]
   + 3.8 r[58] + 9.6 r[59] + 9.9 r[60] + 8.5 r[61] + 4.2 r[62] + 1.3 r[63]
   + 8.6 r[64] + 7.4 r[65] + 2.3 r[66] + 0.1 r[67] + 2.2 r[68] + 8.4 r[69]
   <= 321
 primal_lower: 3.15105760600209 x[0] + 2.087984421025423 x[1]
   + 2.039568014454653 x[2] + 2.37855289939241 x[3]
   + 1.839050748285917 x[4] + 1.939078432261587 x[5]
   + 2.578613608802532 x[6] + 1.86269309471335 x[7]
   + 0.141590769487564 x[8] + 4.050136418411709 x[9]
   + 3.604454953117152 x[10] + 2.811603683564183 x[11]
   + 0.8690208487899179 x[12] + 3.142546665635959 x[13]
   + 3.196517091737914 x[14] + 4.15094929839788 x[15]
   + 0.7428681699353954 x[16] + 2.044696157457818 x[17]
   + 1.559357397388883 x[18] + 2.340756038342142 x[19]
   + 0.297314158959602 x[20] + 4.112521621571967 x[21]
   + 2.299294842959496 x[22] + 3.945219111545687 x[23]
   + 4.311736357317228 x[24] + 3.385499550737817 x[25]
   + 3.129744145746921 x[26] + 0.6441765588924953 x[27]
   + 3.938432143204572 x[28] + 4.377113787808296 x[29]
   + 2.610306981346667 x[30] + 2.211449221823689 x[31]
   + 0.8237689139070965 x[32] + 4.297980021060064 x[33]
   + 0.4521654611570236 x[34] + 2.380297000117297 x[35]
   + 3.397189947852911 x[36] + 0.7002946401634172 x[37]
   + 1.930032413523151 x[38] + 1.699745016796648 x[39]
   + 2.669853140495918 x[40] + 0.5741987384258017 x[41]
   + 2.465570746604846 x[42] + 3.495570694012038 x[43]
   + 3.065773852743415 x[44] + 2.865208683927343 x[45]
   + 3.338459631046871 x[46] + 2.844337273666377 x[47]
   + 3.150673848055475 x[48] + 3.817588149488248 x[49]
   + 4.317757743528528 x[50] + 0.3140221877671709 x[51]
   + 2.6686384010983 x[52] + 0.5260241281146164 x[53]
   + 2.962428095093915 x[54] + 0.5727565853252494 x[55]
   + 2.165471627396558 x[56] + 2.516929022377188 x[57]
   + 0.0927880035236541 x[58] + 3.933296700283667 x[59]
   + 2.561396154714797 x[60] + 1.941098225957475 x[61]
   + 0.3380641224239788 x[62] + 4.370299953223807 x[63]
   + 3.913263665372596 x[64] + 0.5010124016464909 x[65]
   + 3.827552189909677 x[66] + 1.579509712635034 x[67]
   + 4.228515865423566 x[68] + 0.0727569416254683 x[69] + 66 u[0] + 39 u[1]
   + 89 u[2] + 90 u[3] + 35 u[4] + 36 u[5] + 68 u[6] + 50 u[7] + 76 u[8]
   + 17 u[9] + 14 u[10] + 50 u[11] + 99 u[12] + 39 u[13] + 51 u[14]
   + 71 u[15] + 36 u[16] + 27 u[17] + 12 u[18] + 5 u[19] + 44 u[20]
   + 2 u[21] + 91 u[22] + 85 u[23] + 63 u[24] + 31 u[25] + 5 u[26]
   + 86 u[27] + 12 u[28] + 38 u[29] + 32 u[30] + 94 u[31] + 62 u[32]
   + 4 u[33] + 23 u[34] + 12 u[35] + 79 u[36] + 11 u[37] + 79 u[38]
   + 5 u[39] + 70 u[40] + 88 u[41] + 37 u[42] + 80 u[43] + 90 u[44] + u[45]
   + 88 u[46] + 20 u[47] + 94 u[48] + 87 u[49] + 29 u[50] + 15 u[51]
   + 84 u[52] + 15 u[53] + 39 u[54] + 34 u[55] + 72 u[56] + 69 u[57]
   + 7 u[58] + 81 u[59] + 11 u[60] + 93 u[61] + 30 u[62] + 25 u[63]
   + 70 u[64] + 63 u[65] + 35 u[66] + 53 u[67] + 3 u[68] + 44 u[69]
   <= 44611
 mccormick1[0]: - u[0] + r[0] <= 0
 mccormick1[1]: - u[1] + r[1] <= 0
 mccormick1[2]: - u[2] + r[2] <= 0
 mccormick1[3]: - u[3] + r[3] <= 0
 mccormick1[4]: - u[4] + r[4] <= 0
 mccormick1[5]: - u[5] + r[5] <= 0
 mccormick1[6]: - u[6] + r[6] <= 0
 mccormick1[7]: - u[7] + r[7] <= 0
 mccormick1[8]: - u[8] + r[8] <= 0
 mccormick1[9]: - u[9] + r[9] <= 0
 mccormick1[10]: - u[10] + r[10] <= 0
 mccormick1[11]: - u[11] + r[11] <= 0
 mccormick1[12]: - u[12] + r[12] <= 0
 mccormick1[13]: - u[13] + r[13] <= 0
 mccormick1[14]: - u[14] + r[14] <= 0
 mccormick1[15]: - u[15] + r[15] <= 0
 mccormick1[16]: - u[16] + r[16] <= 0
 mccormick1[17]: - u[17] + r[17] <= 0
 mccormick1[18]: - u[18] + r[18] <= 0
 mccormick1[19]: - u[19] + r[19] <= 0
 mccormick1[20]: - u[20] + r[20] <= 0
 mccormick1[21]: - u[21] + r[21] <= 0
 mccormick1[22]: - u[22] + r[22] <= 0
 mccormick1[23]: - u[23] + r[23] <= 0
 mccormick1[24]: - u[24] + r[24] <= 0
 mccormick1[25]: - u[25] + r[25] <= 0
 mccormick1[26]: - u[26] + r[26] <= 0
 mccormick1[27]: - u[27] + r[27] <= 0
 mccormick1[28]: - u[28] + r[28] <= 0
 mccormick1[29]: - u[29] + r[29] <= 0
 mccormick1[30]: - u[30] + r[30] <= 0
 mccormick1[31]: - u[31] + r[31] <= 0
 mccormick1[32]: - u[32] + r[32] <= 0
 mccormick1[33]: - u[33] + r[33] <= 0
 mccormick1[34]: - u[34] + r[34] <= 0
 mccormick1[35]: - u[35] + r[35] <= 0
 mccormick1[36]: - u[36] + r[36] <= 0
 mccormick1[37]: - u[37] + r[37] <= 0
 mccormick1[38]: - u[38] + r[38] <= 0
 mccormick1[39]: - u[39] + r[39] <= 0
 mccormick1[40]: - u[40] + r[40] <= 0
 mccormick1[41]: - u[41] + r[41] <= 0
 mccormick1[42]: - u[42] + r[42] <= 0
 mccormick1[43]: - u[43] + r[43] <= 0
 mccormick1[44]: - u[44] + r[44] <= 0
 mccormick1[45]: - u[45] + r[45] <= 0
 mccormick1[46]: - u[46] + r[46] <= 0
 mccormick1[47]: - u[47] + r[47] <= 0
 mccormick1[48]: - u[48] + r[48] <= 0
 mccormick1[49]: - u[49] + r[49] <= 0
 mccormick1[50]: - u[50] + r[50] <= 0
 mccormick1[51]: - u[51] + r[51] <= 0
 mccormick1[52]: - u[52] + r[52] <= 0
 mccormick1[53]: - u[53] + r[53] <= 0
 mccormick1[54]: - u[54] + r[54] <= 0
 mccormick1[55]: - u[55] + r[55] <= 0
 mccormick1[56]: - u[56] + r[56] <= 0
 mccormick1[57]: - u[57] + r[57] <= 0
 mccormick1[58]: - u[58] + r[58] <= 0
 mccormick1[59]: - u[59] + r[59] <= 0
 mccormick1[60]: - u[60] + r[60] <= 0
 mccormick1[61]: - u[61] + r[61] <= 0
 mccormick1[62]: - u[62] + r[62] <= 0
 mccormick1[63]: - u[63] + r[63] <= 0
 mccormick1[64]: - u[64] + r[64] <= 0
 mccormick1[65]: - u[65] + r[65] <= 0
 mccormick1[66]: - u[66] + r[66] <= 0
 mccormick1[67]: - u[67] + r[67] <= 0
 mccormick1[68]: - u[68] + r[68] <= 0
 mccormick1[69]: - u[69] + r[69] <= 0
 mccormick2[0]: - x[0] + r[0] <= 0
 mccormick2[1]: - x[1] + r[1] <= 0
 mccormick2[2]: - x[2] + r[2] <= 0
 mccormick2[3]: - x[3] + r[3] <= 0
 mccormick2[4]: - x[4] + r[4] <= 0
 mccormick2[5]: - x[5] + r[5] <= 0
 mccormick2[6]: - x[6] + r[6] <= 0
 mccormick2[7]: - x[7] + r[7] <= 0
 mccormick2[8]: - x[8] + r[8] <= 0
 mccormick2[9]: - x[9] + r[9] <= 0
 mccormick2[10]: - x[10] + r[10] <= 0
 mccormick2[11]: - x[11] + r[11] <= 0
 mccormick2[12]: - x[12] + r[12] <= 0
 mccormick2[13]: - x[13] + r[13] <= 0
 mccormick2[14]: - x[14] + r[14] <= 0
 mccormick2[15]: - x[15] + r[15] <= 0
 mccormick2[16]: - x[16] + r[16] <= 0
 mccormick2[17]: - x[17] + r[17] <= 0
 mccormick2[18]: - x[18] + r[18] <= 0
 mccormick2[19]: - x[19] + r[19] <= 0
 mccormick2[20]: - x[20] + r[20] <= 0
 mccormick2[21]: - x[21] + r[21] <= 0
 mccormick2[22]: - x[22] + r[22] <= 0
 mccormick2[23]: - x[23] + r[23] <= 0
 mccormick2[24]: - x[24] + r[24] <= 0
 mccormick2[25]: - x[25] + r[25] <= 0
 mccormick2[26]: - x[26] + r[26] <= 0
 mccormick2[27]: - x[27] + r[27] <= 0
 mccormick2[28]: - x[28] + r[28] <= 0
 mccormick2[29]: - x[29] + r[29] <= 0
 mccormick2[30]: - x[30] + r[30] <= 0
 mccormick2[31]: - x[31] + r[31] <= 0
 mccormick2[32]: - x[32] + r[32] <= 0
 mccormick2[33]: - x[33] + r[33] <= 0
 mccormick2[34]: - x[34] + r[34] <= 0
 mccormick2[35]: - x[35] + r[35] <= 0
 mccormick2[36]: - x[36] + r[36] <= 0
 mccormick2[37]: - x[37] + r[37] <= 0
 mccormick2[38]: - x[38] + r[38] <= 0
 mccormick2[39]: - x[39] + r[39] <= 0
 mccormick2[40]: - x[40] + r[40] <= 0
 mccormick2[41]: - x[41] + r[41] <= 0
 mccormick2[42]: - x[42] + r[42] <= 0
 mccormick2[43]: - x[43] + r[43] <= 0
 mccormick2[44]: - x[44] + r[44] <= 0
 mccormick2[45]: - x[45] + r[45] <= 0
 mccormick2[46]: - x[46] + r[46] <= 0
 mccormick2[47]: - x[47] + r[47] <= 0
 mccormick2[48]: - x[48] + r[48] <= 0
 mccormick2[49]: - x[49] + r[49] <= 0
 mccormick2[50]: - x[50] + r[50] <= 0
 mccormick2[51]: - x[51] + r[51] <= 0
 mccormick2[52]: - x[52] + r[52] <= 0
 mccormick2[53]: - x[53] + r[53] <= 0
 mccormick2[54]: - x[54] + r[54] <= 0
 mccormick2[55]: - x[55] + r[55] <= 0
 mccormick2[56]: - x[56] + r[56] <= 0
 mccormick2[57]: - x[57] + r[57] <= 0
 mccormick2[58]: - x[58] + r[58] <= 0
 mccormick2[59]: - x[59] + r[59] <= 0
 mccormick2[60]: - x[60] + r[60] <= 0
 mccormick2[61]: - x[61] + r[61] <= 0
 mccormick2[62]: - x[62] + r[62] <= 0
 mccormick2[63]: - x[63] + r[63] <= 0
 mccormick2[64]: - x[64] + r[64] <= 0
 mccormick2[65]: - x[65] + r[65] <= 0
 mccormick2[66]: - x[66] + r[66] <= 0
 mccormick2[67]: - x[67] + r[67] <= 0
 mccormick2[68]: - x[68] + r[68] <= 0
 mccormick2[69]: - x[69] + r[69] <= 0
 mccormick3[0]: x[0] + u[0] - r[0] <= 1
 mccormick3[1]: x[1] + u[1] - r[1] <= 1
 mccormick3[2]: x[2] + u[2] - r[2] <= 1
 mccormick3[3]: x[3] + u[3] - r[3] <= 1
 mccormick3[4]: x[4] + u[4] - r[4] <= 1
 mccormick3[5]: x[5] + u[5] - r[5] <= 1
 mccormick3[6]: x[6] + u[6] - r[6] <= 1
 mccormick3[7]: x[7] + u[7] - r[7] <= 1
 mccormick3[8]: x[8] + u[8] - r[8] <= 1
 mccormick3[9]: x[9] + u[9] - r[9] <= 1
 mccormick3[10]: x[10] + u[10] - r[10] <= 1
 mccormick3[11]: x[11] + u[11] - r[11] <= 1
 mccormick3[12]: x[12] + u[12] - r[12] <= 1
 mccormick3[13]: x[13] + u[13] - r[13] <= 1
 mccormick3[14]: x[14] + u[14] - r[14] <= 1
 mccormick3[15]: x[15] + u[15] - r[15] <= 1
 mccormick3[16]: x[16] + u[16] - r[16] <= 1
 mccormick3[17]: x[17] + u[17] - r[17] <= 1
 mccormick3[18]: x[18] + u[18] - r[18] <= 1
 mccormick3[19]: x[19] + u[19] - r[19] <= 1
 mccormick3[20]: x[20] + u[20] - r[20] <= 1
 mccormick3[21]: x[21] + u[21] - r[21] <= 1
 mccormick3[22]: x[22] + u[22] - r[22] <= 1
 mccormick3[23]: x[23] + u[23] - r[23] <= 1
 mccormick3[24]: x[24] + u[24] - r[24] <= 1
 mccormick3[25]: x[25] + u[25] - r[25] <= 1
 mccormick3[26]: x[26] + u[26] - r[26] <= 1
 mccormick3[27]: x[27] + u[27] - r[27] <= 1
 mccormick3[28]: x[28] + u[28] - r[28] <= 1
 mccormick3[29]: x[29] + u[29] - r[29] <= 1
 mccormick3[30]: x[30] + u[30] - r[30] <= 1
 mccormick3[31]: x[31] + u[31] - r[31] <= 1
 mccormick3[32]: x[32] + u[32] - r[32] <= 1
 mccormick3[33]: x[33] + u[33] - r[33] <= 1
 mccormick3[34]: x[34] + u[34] - r[34] <= 1
 mccormick3[35]: x[35] + u[35] - r[35] <= 1
 mccormick3[36]: x[36] + u[36] - r[36] <= 1
 mccormick3[37]: x[37] + u[37] - r[37] <= 1
 mccormick3[38]: x[38] + u[38] - r[38] <= 1
 mccormick3[39]: x[39] + u[39] - r[39] <= 1
 mccormick3[40]: x[40] + u[40] - r[40] <= 1
 mccormick3[41]: x[41] + u[41] - r[41] <= 1
 mccormick3[42]: x[42] + u[42] - r[42] <= 1
 mccormick3[43]: x[43] + u[43] - r[43] <= 1
 mccormick3[44]: x[44] + u[44] - r[44] <= 1
 mccormick3[45]: x[45] + u[45] - r[45] <= 1
 mccormick3[46]: x[46] + u[46] - r[46] <= 1
 mccormick3[47]: x[47] + u[47] - r[47] <= 1
 mccormick3[48]: x[48] + u[48] - r[48] <= 1
 mccormick3[49]: x[49] + u[49] - r[49] <= 1
 mccormick3[50]: x[50] + u[50] - r[50] <= 1
 mccormick3[51]: x[51] + u[51] - r[51] <= 1
 mccormick3[52]: x[52] + u[52] - r[52] <= 1
 mccormick3[53]: x[53] + u[53] - r[53] <= 1
 mccormick3[54]: x[54] + u[54] - r[54] <= 1
 mccormick3[55]: x[55] + u[55] - r[55] <= 1
 mccormick3[56]: x[56] + u[56] - r[56] <= 1
 mccormick3[57]: x[57] + u[57] - r[57] <= 1
 mccormick3[58]: x[58] + u[58] - r[58] <= 1
 mccormick3[59]: x[59] + u[59] - r[59] <= 1
 mccormick3[60]: x[60] + u[60] - r[60] <= 1
 mccormick3[61]: x[61] + u[61] - r[61] <= 1
 mccormick3[62]: x[62] + u[62] - r[62] <= 1
 mccormick3[63]: x[63] + u[63] - r[63] <= 1
 mccormick3[64]: x[64] + u[64] - r[64] <= 1
 mccormick3[65]: x[65] + u[65] - r[65] <= 1
 mccormick3[66]: x[66] + u[66] - r[66] <= 1
 mccormick3[67]: x[67] + u[67] - r[67] <= 1
 mccormick3[68]: x[68] + u[68] - r[68] <= 1
 mccormick3[69]: x[69] + u[69] - r[69] <= 1
Bounds
Binaries
 x[0] x[1] x[2] x[3] x[4] x[5] x[6] x[7] x[8] x[9] x[10] x[11] x[12] x[13]
 x[14] x[15] x[16] x[17] x[18] x[19] x[20] x[21] x[22] x[23] x[24] x[25]
 x[26] x[27] x[28] x[29] x[30] x[31] x[32] x[33] x[34] x[35] x[36] x[37]
 x[38] x[39] x[40] x[41] x[42] x[43] x[44] x[45] x[46] x[47] x[48] x[49]
 x[50] x[51] x[52] x[53] x[54] x[55] x[56] x[57] x[58] x[59] x[60] x[61]
 x[62] x[63] x[64] x[65] x[66] x[67] x[68] x[69] u[0] u[1] u[2] u[3] u[4]
 u[5] u[6] u[7] u[8] u[9] u[10] u[11] u[12] u[13] u[14] u[15] u[16] u[17]
 u[18] u[19] u[20] u[21] u[22] u[23] u[24] u[25] u[26] u[27] u[28] u[29]
 u[30] u[31] u[32] u[33] u[34] u[35] u[36] u[37] u[38] u[39] u[40] u[41]
 u[42] u[43] u[44] u[45] u[46] u[47] u[48] u[49] u[50] u[51] u[52] u[53]
 u[54] u[55] u[56] u[57] u[58] u[59] u[60] u[61] u[62] u[63] u[64] u[65]
 u[66] u[67] u[68] u[69] r[0] r[1] r[2] r[3] r[4] r[5] r[6] r[7] r[8] r[9]
 r[10] r[11] r[12] r[13] r[14] r[15] r[16] r[17] r[18] r[19] r[20] r[21]
 r[22] r[23] r[24] r[25] r[26] r[27] r[28] r[29] r[30] r[31] r[32] r[33]
 r[34] r[35] r[36] r[37] r[38] r[39] r[40] r[41] r[42] r[43] r[44] r[45]
 r[46] r[47] r[48] r[49] r[50] r[51] r[52] r[53] r[54] r[55] r[56] r[57]
 r[58] r[59] r[60] r[61] r[62] r[63] r[64] r[65] r[66] r[67] r[68] r[69]
End
