instances/knapsack/discrete/knapsack_70_3.kp
23678
70
321

6 0.6 16
10 1.0 81
56 5.6 86
25 2.5 46
58 5.8 48
48 4.8 55
11 1.1 16
62 6.2 30
35 3.5 25
72 7.2 89
54 5.4 53
89 8.9 13
34 3.4 69
54 5.4 68
79 7.9 49
3 0.3 22
35 3.5 60
70 7.0 96
23 2.3 89
52 5.2 76
3 0.3 100
70 7.0 17
42 4.2 50
73 7.3 42
99 9.9 67
78 7.8 37
40 4.0 70
82 8.2 46
24 2.4 40
69 6.9 43
20 2.0 71
86 8.6 46
10 1.0 50
35 3.5 77
34 3.4 2
59 5.9 7
78 7.8 27
75 7.5 49
46 4.6 25
61 6.1 98
1 0.1 42
48 4.8 64
64 6.4 100
24 2.4 25
29 2.9 77
61 6.1 85
84 8.4 15
44 4.4 19
85 8.5 47
18 1.8 96
29 2.9 41
30 3.0 37
31 3.1 5
58 5.8 47
31 3.1 62
46 4.6 88
47 4.7 5
21 2.1 58
38 3.8 98
96 9.6 33
99 9.9 42
85 8.5 16
42 4.2 32
13 1.3 20
86 8.6 21
74 7.4 67
23 2.3 15
1 0.1 28
22 2.2 91
84 8.4 16

44611
319

[3.15105760600209 2.0879844210254226 2.0395680144546526 2.37855289939241 1.839050748285917 1.9390784322615875 2.578613608802532 1.86269309471335 0.14159076948756405 4.050136418411709 3.604454953117152 2.811603683564183 0.8690208487899179 3.142546665635959 3.196517091737914 4.15094929839788 0.7428681699353954 2.0446961574578175 1.5593573973888832 2.340756038342142 0.297314158959602 4.112521621571967 2.2992948429594957 3.945219111545687 4.311736357317228 3.385499550737817 3.1297441457469213 0.6441765588924953 3.9384321432045724 4.3771137878082955 2.610306981346667 2.211449221823689 0.8237689139070965 4.297980021060064 0.4521654611570236 2.3802970001172974 3.397189947852911 0.7002946401634172 1.9300324135231508 1.699745016796648 2.6698531404959183 0.5741987384258017 2.465570746604846 3.4955706940120383 3.0657738527434146 2.865208683927343 3.3384596310468715 2.8443372736663775 3.1506738480554746 3.8175881494882478 4.317757743528528 0.3140221877671709 2.6686384010983 0.5260241281146164 2.962428095093915 0.5727565853252494 2.1654716273965584 2.516929022377188 0.09278800352365411 3.933296700283667 2.5613961547147968 1.9410982259574747 0.33806412242397876 4.370299953223807 3.9132636653725963 0.5010124016464909 3.8275521899096767 1.5795097126350337 4.2285158654235655 0.07275694162546834]

[66 39 89 90 35 36 68 50 76 17 14 50 99 39 51 71 36 27 12 5 44 2 91 85 63 31 5 86 12 38 32 94 62 4 23 12 79 11 79 5 70 88 37 80 90 1 88 20 94 87 29 15 84 15 39 34 72 69 7 81 11 93 30 25 70 63 35 53 3 44]
